Total weight: 1530.8410075528861
Route 1: 0 28 76 77 79 55 25 12 0 
Route 2: 0 42 15 87 97 5 60 18 0 
Route 3: 0 36 47 19 8 46 48 82 0 
Route 4: 0 70 30 51 20 66 69 0 
Route 5: 0 83 45 16 86 84 17 93 0 
Route 6: 0 52 7 62 11 90 32 88 0 
Route 7: 0 4 39 23 41 22 54 24 80 0 
Route 8: 0 67 29 35 34 78 0 
Route 9: 0 37 14 44 38 43 0 
Route 10: 0 26 21 73 72 56 75 74 0 
Route 11: 0 57 2 85 61 6 89 0 
Route 12: 0 10 63 64 49 0 
Route 13: 0 1 65 71 9 0 
Route 14: 0 50 33 81 3 68 0 
Route 15: 0 31 27 94 95 99 96 59 92 98 91 100 0 
Route 16: 0 53 40 13 58 0 
